Instance name: /home/cuong/CLionProjects/uMV-FSTSP/50_dis_rand_ins/v84
Write arg val: 1

drone speed: 1 miles/minute
uav non-eligible customer: 1 10 11 
Printing tau:
0 16.7439 40.2058 58.6087 58.665 48.219 58.4194 41.5584 44.3684 87.9097 107.766 0 
16.7439 0 32.4392 41.8649 50.8984 40.4525 50.6529 58.3022 47.7455 80.1431 99.9997 16.7439 
40.2058 32.4392 0 24.13 34.2201 32.0286 25.0564 76.0371 65.4803 47.7039 67.5605 40.2058 
58.6087 41.8649 24.13 0 58.3501 56.1586 49.1865 100.167 89.6103 70.8641 66.153 58.6087 
58.665 50.8984 34.2201 58.3501 0 10.4459 9.1637 41.817 31.2602 29.2447 49.1013 58.665 
48.219 40.4525 32.0286 56.1586 10.4459 0 10.2004 44.0085 33.4517 39.6906 59.5472 48.219 
58.4194 50.6529 25.0564 49.1865 9.1637 10.2004 0 50.9807 40.4239 29.4903 49.3468 58.4194 
41.5584 58.3022 76.0371 100.167 41.817 44.0085 50.9807 0 10.5568 46.514 66.3706 41.5584 
44.3684 47.7455 65.4803 89.6103 31.2602 33.4517 40.4239 10.5568 0 43.5413 63.3979 44.3684 
87.9097 80.1431 47.7039 70.8641 29.2447 39.6906 29.4903 46.514 43.5413 0 19.8566 87.9097 
107.766 99.9997 67.5605 66.153 49.1013 59.5472 49.3468 66.3706 63.3979 19.8566 0 107.766 
0 0 0 0 0 0 0 0 0 0 0 0 
Printing tau_prime:
0 4.89426 14.0444 19.0599 15.556 12.8025 15.691 15.5539 14.3524 23.536 28.6432 0 
4.89426 0 9.80331 14.2753 14.1867 11.3765 13.571 17.8471 15.9525 22.5996 27.2787 4.89426 
14.0444 9.80331 0 6.40932 10.31 8.75463 8.21396 20.1648 17.3981 17.708 21.0781 14.0444 
19.0599 14.2753 6.40932 0 16.1196 14.994 13.7829 26.5609 23.7728 22.4454 24.7814 19.0599 
15.556 14.1867 10.31 16.1196 0 2.8302 2.43076 11.9967 9.11486 8.4348 13.1776 15.556 
12.8025 11.3765 8.75463 14.994 2.8302 0 3.27625 11.8089 8.9288 11.2237 16.0047 12.8025 
15.691 13.571 8.21396 13.7829 2.43076 3.27625 0 14.2521 11.3481 9.70516 13.825 15.691 
15.5539 17.8471 20.1648 26.5609 11.9967 11.8089 14.2521 0 2.90815 14.5774 19.7925 15.5539 
14.3524 15.9525 17.3981 23.7728 9.11486 8.9288 11.3481 2.90815 0 12.5702 17.9375 14.3524 
23.536 22.5996 17.708 22.4454 8.4348 11.2237 9.70516 14.5774 12.5702 0 5.42002 23.536 
28.6432 27.2787 21.0781 24.7814 13.1776 16.0047 13.825 19.7925 17.9375 5.42002 0 28.6432 
0 0 0 0 0 0 0 0 0 0 0 0 
Version identifier: 22.1.1.0 | 2022-11-28 | 9160aff4d
CPXPARAM_MIP_Tolerances_Integrality              0
Tried aggregator 1 time.
MIP Presolve eliminated 1 rows and 12 columns.
MIP Presolve modified 20 coefficients.
Reduced MIP has 122 rows, 120 columns, and 510 nonzeros.
Reduced MIP has 110 binaries, 0 generals, 0 SOSs, and 0 indicators.
Presolve time = 0.00 sec. (0.27 ticks)
Found incumbent of value 516.601500 after 0.00 sec. (0.75 ticks)
Probing time = 0.00 sec. (0.26 ticks)
Cover probing fixed 0 vars, tightened 10 bounds.
Tried aggregator 1 time.
Detecting symmetries...
MIP Presolve eliminated 10 rows and 0 columns.
MIP Presolve modified 180 coefficients.
Reduced MIP has 112 rows, 120 columns, and 490 nonzeros.
Reduced MIP has 110 binaries, 0 generals, 0 SOSs, and 0 indicators.
Presolve time = 0.00 sec. (0.35 ticks)
Probing time = 0.00 sec. (0.26 ticks)
Clique table members: 67.
MIP emphasis: balance optimality and feasibility.
MIP search method: dynamic search.
Parallel mode: deterministic, using up to 20 threads.
Root relaxation solution time = 0.00 sec. (0.20 ticks)

        Nodes                                         Cuts/
   Node  Left     Objective  IInf  Best Integer    Best Bound    ItCnt     Gap

*     0+    0                          516.6015        0.0000           100.00%
      0     0      193.4399    19      516.6015      193.4399       23   62.56%
*     0+    0                          292.8347      193.4399            33.94%
      0     0      277.6611    18      292.8347      Cuts: 48       43    5.18%
      0     0      277.6611    18      292.8347       Cuts: 6       47    5.18%
Detecting symmetries...

Repeating presolve.
Tried aggregator 1 time.
MIP Presolve eliminated 33 rows and 45 columns.
Reduced MIP has 79 rows, 75 columns, and 301 nonzeros.
Reduced MIP has 65 binaries, 0 generals, 0 SOSs, and 0 indicators.
Presolve time = 0.00 sec. (0.16 ticks)
Probing time = 0.00 sec. (0.12 ticks)
Cover probing fixed 0 vars, tightened 12 bounds.
Tried aggregator 1 time.
Detecting symmetries...
MIP Presolve modified 104 coefficients.
Reduced MIP has 79 rows, 75 columns, and 301 nonzeros.
Reduced MIP has 65 binaries, 0 generals, 0 SOSs, and 0 indicators.
Presolve time = 0.00 sec. (0.19 ticks)
Represolve time = 0.00 sec. (0.64 ticks)
Probing time = 0.00 sec. (0.11 ticks)
Clique table members: 50.
MIP emphasis: balance optimality and feasibility.
MIP search method: dynamic search.
Parallel mode: deterministic, using up to 20 threads.
Root relaxation solution time = 0.00 sec. (0.20 ticks)

        Nodes                                         Cuts/
   Node  Left     Objective  IInf  Best Integer    Best Bound    ItCnt     Gap

*     0+    0                          292.8347      277.6611             5.18%
      0     0      277.6611    18      292.8347      277.6611       83    5.18%
      0     0      277.6611    18      292.8347      Cuts: 31      101    5.18%
      0     0      277.6611    18      292.8347      Cuts: 13      104    5.18%
      0     0        cutoff            292.8347      292.8347      104    0.00%
Elapsed time = 0.12 sec. (9.81 ticks, tree = 0.01 MB, solutions = 2)

Clique cuts applied:  3
Implied bound cuts applied:  6
Mixed integer rounding cuts applied:  7
Multi commodity flow cuts applied:  4

Root node processing (before b&c):
  Real time             =    0.12 sec. (9.81 ticks)
Parallel b&c, 20 threads:
  Real time             =    0.00 sec. (0.00 ticks)
  Sync time (average)   =    0.00 sec.
  Wait time (average)   =    0.00 sec.
                          ------------
Total (root+branch&cut) =    0.12 sec. (9.81 ticks)

TSP solution for this instance: 0 1 2 3 10 9 6 5 4 8 7 11 
12
Warmstart X[1][0] == 1
Warmstart X[2][1] == 1
Warmstart X[3][2] == 1
Warmstart X[4][3] == 1
Warmstart X[5][10] == 1
Warmstart X[6][9] == 1
Warmstart X[7][6] == 1
Warmstart X[8][5] == 1
Warmstart X[9][4] == 1
Warmstart X[10][8] == 1
Warmstart X[11][7] == 1
---------------------------------------------
Calculate max stage gap for sortie.... 
Stage gap of 3 with smallest length = 27.4911 violated endurance constraint!
---------------------------------------------
Variable z[1][4] was set to 0.
Variable z[1][5] was set to 0.
Variable z[1][6] was set to 0.
Variable z[1][7] was set to 0.
Variable z[1][8] was set to 0.
Variable z[1][9] was set to 0.
Variable z[1][10] was set to 0.
Variable z[1][11] was set to 0.
Variable z[1][12] was set to 0.
Variable z[2][5] was set to 0.
Variable z[2][6] was set to 0.
Variable z[2][7] was set to 0.
Variable z[2][8] was set to 0.
Variable z[2][9] was set to 0.
Variable z[2][10] was set to 0.
Variable z[2][11] was set to 0.
Variable z[2][12] was set to 0.
Variable z[3][6] was set to 0.
Variable z[3][7] was set to 0.
Variable z[3][8] was set to 0.
Variable z[3][9] was set to 0.
Variable z[3][10] was set to 0.
Variable z[3][11] was set to 0.
Variable z[3][12] was set to 0.
Variable z[4][7] was set to 0.
Variable z[4][8] was set to 0.
Variable z[4][9] was set to 0.
Variable z[4][10] was set to 0.
Variable z[4][11] was set to 0.
Variable z[4][12] was set to 0.
Variable z[5][8] was set to 0.
Variable z[5][9] was set to 0.
Variable z[5][10] was set to 0.
Variable z[5][11] was set to 0.
Variable z[5][12] was set to 0.
Variable z[6][9] was set to 0.
Variable z[6][10] was set to 0.
Variable z[6][11] was set to 0.
Variable z[6][12] was set to 0.
Variable z[7][10] was set to 0.
Variable z[7][11] was set to 0.
Variable z[7][12] was set to 0.
Variable z[8][11] was set to 0.
Variable z[8][12] was set to 0.
Variable z[9][12] was set to 0.
Num constraint added = 4752
Warning:  Output names have been modified due to duplicate names or characters invalid in LP format.
Version identifier: 22.1.1.0 | 2022-11-28 | 9160aff4d
CPXPARAM_TimeLimit                               200
CPXPARAM_MIP_Tolerances_Integrality              0
1 of 1 MIP starts provided solutions.
MIP start 'm1' defined initial solution with objective 292.8347.
Tried aggregator 6 times.
MIP Presolve eliminated 6398 rows and 2374 columns.
MIP Presolve modified 2290 coefficients.
Aggregator did 45 substitutions.
Reduced MIP has 1275 rows, 2357 columns, and 55832 nonzeros.
Reduced MIP has 2336 binaries, 0 generals, 0 SOSs, and 0 indicators.
Presolve time = 0.12 sec. (327.49 ticks)
Probing fixed 118 vars, tightened 0 bounds.
Probing changed sense of 4 constraints.
Probing time = 0.03 sec. (67.14 ticks)
Cover probing fixed 0 vars, tightened 22 bounds.
Tried aggregator 2 times.
Detecting symmetries...
MIP Presolve eliminated 65 rows and 119 columns.
MIP Presolve modified 149 coefficients.
Aggregator did 6 substitutions.
Reduced MIP has 1204 rows, 2232 columns, and 46793 nonzeros.
Reduced MIP has 2211 binaries, 0 generals, 0 SOSs, and 0 indicators.
Presolve time = 0.04 sec. (86.50 ticks)
Probing time = 0.00 sec. (4.99 ticks)
Clique table members: 9035.
MIP emphasis: balance optimality and feasibility.
MIP search method: dynamic search.
Parallel mode: deterministic, using up to 20 threads.
Root relaxation solution time = 0.12 sec. (242.01 ticks)

        Nodes                                         Cuts/
   Node  Left     Objective  IInf  Best Integer    Best Bound    ItCnt     Gap

*     0+    0                          292.8347       16.7439            94.28%
      0     0      199.1531   266      292.8347      199.1531       38   31.99%
      0     0      221.3652   205      292.8347      Cuts: 69     1311   24.41%
      0     0      228.5901   230      292.8347      Cuts: 48     2336   21.94%
      0     0      234.7617   336      292.8347      Cuts: 32     3377   19.83%
      0     0      236.8886   348      292.8347       Cuts: 9     4805   19.11%
      0     0      238.0984   386      292.8347       Cuts: 6     5272   18.69%
Detecting symmetries...
      0     0      238.1965   333      292.8347   ZeroHalf: 4     5409   18.66%
      0     0      238.7568   334      292.8347       Cuts: 8     5712   18.47%
      0     0      239.8449   347      292.8347       Cuts: 9     6140   18.10%
      0     0      240.3775   380      292.8347       Cuts: 8     6378   17.91%
Detecting symmetries...
      0     2      240.3873   381      292.8347      240.5809     6408   17.84%
Elapsed time = 1.53 sec. (2870.23 ticks, tree = 0.02 MB, solutions = 1)
      4     4      243.5968   216      292.8347      240.5809     8096   17.84%
      5     3      244.5558   282      292.8347      243.7174    11748   16.77%
     22     8      290.4033   106      292.8347      245.2522    19832   16.25%
    170    22      286.2671   227      292.8347      250.6712    45703   14.40%
    667    43      282.7941   123      292.8347      255.7480    80482   12.66%
*   764+   18                          286.8986      256.5116            10.59%
    790    21      278.9295    55      286.8986      256.5116   111732   10.59%
*  1286    25      integral     0      283.3521      258.2636   156978    8.85%
   1303    30      273.1335   305      283.3521      258.2636   145241    8.85%
   1625    30      281.7813   207      283.3521      267.8568   188376    5.47%

GUB cover cuts applied:  10
Cover cuts applied:  72
Implied bound cuts applied:  16
Flow cuts applied:  1
Mixed integer rounding cuts applied:  1
Zero-half cuts applied:  30
Gomory fractional cuts applied:  3

Root node processing (before b&c):
  Real time             =    1.47 sec. (2809.43 ticks)
Parallel b&c, 20 threads:
  Real time             =    1.79 sec. (2648.73 ticks)
  Sync time (average)   =    1.08 sec.
  Wait time (average)   =    0.00 sec.
                          ------------
Total (root+branch&cut) =    3.26 sec. (5458.17 ticks)
Feasible solution found!
Truck nodes:
Stage 1 at customer 0 with arrival time is: 0
Stage 1 at customer 0 with departure time is: 0
Stage 2 at customer 7 with arrival time is: 41.5584
Stage 2 at customer 7 with departure time is: 41.5584
Stage 3 at customer 8 with arrival time is: 52.1152
Stage 3 at customer 8 with departure time is: 52.1152
Stage 4 at customer 4 with arrival time is: 83.3754
Stage 4 at customer 4 with departure time is: 84.3754
Stage 5 at customer 6 with arrival time is: 93.5391
Stage 5 at customer 6 with departure time is: 94.5391
Stage 6 at customer 9 with arrival time is: 124.029
Stage 6 at customer 9 with departure time is: 124.029
Stage 7 at customer 10 with arrival time is: 143.886
Stage 7 at customer 10 with departure time is: 143.886
Stage 8 at customer 3 with arrival time is: 210.039
Stage 8 at customer 3 with departure time is: 210.039
Stage 9 at customer 2 with arrival time is: 234.169
Stage 9 at customer 2 with departure time is: 234.169
Stage 10 at customer 1 with arrival time is: 266.608
Stage 10 at customer 1 with departure time is: 266.608
Stage 11 at customer 11 with arrival time is: 283.352
Stage 11 at customer 11 with departure time is: 283.352
Truck arcs:
Arc 1 connecting 0 and 7 with cost 41.5584 
Arc 2 connecting 7 and 8 with cost 10.5568 
Arc 3 connecting 8 and 4 with cost 31.2602 
Arc 4 connecting 4 and 6 with cost 9.1637 
Arc 5 connecting 6 and 9 with cost 29.4903 
Arc 6 connecting 9 and 10 with cost 19.8566 
Arc 7 connecting 10 and 3 with cost 66.153 
Arc 8 connecting 3 and 2 with cost 24.13 
Arc 9 connecting 2 and 1 with cost 32.4392 
Arc 10 connecting 1 and 11 with cost 16.7439 
Customer 5 served by drone.
Drone fly from 4 at stage 4 to serve 5 and then fly back to 6 at stage 5. 
Truck arcs during this sortie: 4--->6
Truck travel time from stage 4 to 5 is: 9.1637
Total drone travel time: 6.10645
Drone arrival time: 90.4818
Truck arrival time: 93.5391
Truck departure time = max(d/a, t/a) plus (sl/sr): 94.5391
Done!
-------------------------Re-calculated objective-----------------------
283.352
------------------------------------------------------------------------
Solve time: 3.26
OBJECTIVE VALUE: 283.352, NUMBER OF SORTIES: 1.
Number of revisit: 0
In write mode
